p cnf 286 1742
1 2 3 4 5 6 7 8 9 10 11 0
12 13 14 15 16 17 18 19 20 21 22 0
23 24 25 26 27 28 29 30 31 32 33 0
34 35 36 37 38 39 40 41 42 43 44 0
45 46 47 48 49 50 51 52 53 54 55 0
56 57 58 59 60 61 62 63 64 65 66 0
67 68 69 70 71 72 73 74 75 76 77 0
78 79 80 81 82 83 84 85 86 87 88 0
89 90 91 92 93 94 95 96 97 98 99 0
100 101 102 103 104 105 106 107 108 109 110 0
111 112 113 114 115 116 117 118 119 120 121 0
122 123 124 125 126 127 128 129 130 131 132 0
133 134 135 136 137 138 139 140 141 142 143 0
-1 -12 0
-1 -23 0
-1 -34 0
-1 -45 0
-1 -56 0
-1 -67 0
-1 -78 0
-1 -89 0
-1 -100 0
-1 -111 0
-1 -122 0
-1 -133 0
-12 -23 0
-12 -34 0
-12 -45 0
-12 -56 0
-12 -67 0
-12 -78 0
-12 -89 0
-12 -100 0
-12 -111 0
-12 -122 0
-12 -133 0
-23 -34 0
-23 -45 0
-23 -56 0
-23 -67 0
-23 -78 0
-23 -89 0
-23 -100 0
-23 -111 0
-23 -122 0
-23 -133 0
-34 -45 0
-34 -56 0
-34 -67 0
-34 -78 0
-34 -89 0
-34 -100 0
-34 -111 0
-34 -122 0
-34 -133 0
-45 -56 0
-45 -67 0
-45 -78 0
-45 -89 0
-45 -100 0
-45 -111 0
-45 -122 0
-45 -133 0
-56 -67 0
-56 -78 0
-56 -89 0
-56 -100 0
-56 -111 0
-56 -122 0
-56 -133 0
-67 -78 0
-67 -89 0
-67 -100 0
-67 -111 0
-67 -122 0
-67 -133 0
-78 -89 0
-78 -100 0
-78 -111 0
-78 -122 0
-78 -133 0
-89 -100 0
-89 -111 0
-89 -122 0
-89 -133 0
-100 -111 0
-100 -122 0
-100 -133 0
-111 -122 0
-111 -133 0
-122 -133 0
-2 -13 0
-2 -24 0
-2 -35 0
-2 -46 0
-2 -57 0
-2 -68 0
-2 -79 0
-2 -90 0
-2 -101 0
-2 -112 0
-2 -123 0
-2 -134 0
-13 -24 0
-13 -35 0
-13 -46 0
-13 -57 0
-13 -68 0
-13 -79 0
-13 -90 0
-13 -101 0
-13 -112 0
-13 -123 0
-13 -134 0
-24 -35 0
-24 -46 0
-24 -57 0
-24 -68 0
-24 -79 0
-24 -90 0
-24 -101 0
-24 -112 0
-24 -123 0
-24 -134 0
-35 -46 0
-35 -57 0
-35 -68 0
-35 -79 0
-35 -90 0
-35 -101 0
-35 -112 0
-35 -123 0
-35 -134 0
-46 -57 0
-46 -68 0
-46 -79 0
-46 -90 0
-46 -101 0
-46 -112 0
-46 -123 0
-46 -134 0
-57 -68 0
-57 -79 0
-57 -90 0
-57 -101 0
-57 -112 0
-57 -123 0
-57 -134 0
-68 -79 0
-68 -90 0
-68 -101 0
-68 -112 0
-68 -123 0
-68 -134 0
-79 -90 0
-79 -101 0
-79 -112 0
-79 -123 0
-79 -134 0
-90 -101 0
-90 -112 0
-90 -123 0
-90 -134 0
-101 -112 0
-101 -123 0
-101 -134 0
-112 -123 0
-112 -134 0
-123 -134 0
-3 -14 0
-3 -25 0
-3 -36 0
-3 -47 0
-3 -58 0
-3 -69 0
-3 -80 0
-3 -91 0
-3 -102 0
-3 -113 0
-3 -124 0
-3 -135 0
-14 -25 0
-14 -36 0
-14 -47 0
-14 -58 0
-14 -69 0
-14 -80 0
-14 -91 0
-14 -102 0
-14 -113 0
-14 -124 0
-14 -135 0
-25 -36 0
-25 -47 0
-25 -58 0
-25 -69 0
-25 -80 0
-25 -91 0
-25 -102 0
-25 -113 0
-25 -124 0
-25 -135 0
-36 -47 0
-36 -58 0
-36 -69 0
-36 -80 0
-36 -91 0
-36 -102 0
-36 -113 0
-36 -124 0
-36 -135 0
-47 -58 0
-47 -69 0
-47 -80 0
-47 -91 0
-47 -102 0
-47 -113 0
-47 -124 0
-47 -135 0
-58 -69 0
-58 -80 0
-58 -91 0
-58 -102 0
-58 -113 0
-58 -124 0
-58 -135 0
-69 -80 0
-69 -91 0
-69 -102 0
-69 -113 0
-69 -124 0
-69 -135 0
-80 -91 0
-80 -102 0
-80 -113 0
-80 -124 0
-80 -135 0
-91 -102 0
-91 -113 0
-91 -124 0
-91 -135 0
-102 -113 0
-102 -124 0
-102 -135 0
-113 -124 0
-113 -135 0
-124 -135 0
-4 -15 0
-4 -26 0
-4 -37 0
-4 -48 0
-4 -59 0
-4 -70 0
-4 -81 0
-4 -92 0
-4 -103 0
-4 -114 0
-4 -125 0
-4 -136 0
-15 -26 0
-15 -37 0
-15 -48 0
-15 -59 0
-15 -70 0
-15 -81 0
-15 -92 0
-15 -103 0
-15 -114 0
-15 -125 0
-15 -136 0
-26 -37 0
-26 -48 0
-26 -59 0
-26 -70 0
-26 -81 0
-26 -92 0
-26 -103 0
-26 -114 0
-26 -125 0
-26 -136 0
-37 -48 0
-37 -59 0
-37 -70 0
-37 -81 0
-37 -92 0
-37 -103 0
-37 -114 0
-37 -125 0
-37 -136 0
-48 -59 0
-48 -70 0
-48 -81 0
-48 -92 0
-48 -103 0
-48 -114 0
-48 -125 0
-48 -136 0
-59 -70 0
-59 -81 0
-59 -92 0
-59 -103 0
-59 -114 0
-59 -125 0
-59 -136 0
-70 -81 0
-70 -92 0
-70 -103 0
-70 -114 0
-70 -125 0
-70 -136 0
-81 -92 0
-81 -103 0
-81 -114 0
-81 -125 0
-81 -136 0
-92 -103 0
-92 -114 0
-92 -125 0
-92 -136 0
-103 -114 0
-103 -125 0
-103 -136 0
-114 -125 0
-114 -136 0
-125 -136 0
-5 -16 0
-5 -27 0
-5 -38 0
-5 -49 0
-5 -60 0
-5 -71 0
-5 -82 0
-5 -93 0
-5 -104 0
-5 -115 0
-5 -126 0
-5 -137 0
-16 -27 0
-16 -38 0
-16 -49 0
-16 -60 0
-16 -71 0
-16 -82 0
-16 -93 0
-16 -104 0
-16 -115 0
-16 -126 0
-16 -137 0
-27 -38 0
-27 -49 0
-27 -60 0
-27 -71 0
-27 -82 0
-27 -93 0
-27 -104 0
-27 -115 0
-27 -126 0
-27 -137 0
-38 -49 0
-38 -60 0
-38 -71 0
-38 -82 0
-38 -93 0
-38 -104 0
-38 -115 0
-38 -126 0
-38 -137 0
-49 -60 0
-49 -71 0
-49 -82 0
-49 -93 0
-49 -104 0
-49 -115 0
-49 -126 0
-49 -137 0
-60 -71 0
-60 -82 0
-60 -93 0
-60 -104 0
-60 -115 0
-60 -126 0
-60 -137 0
-71 -82 0
-71 -93 0
-71 -104 0
-71 -115 0
-71 -126 0
-71 -137 0
-82 -93 0
-82 -104 0
-82 -115 0
-82 -126 0
-82 -137 0
-93 -104 0
-93 -115 0
-93 -126 0
-93 -137 0
-104 -115 0
-104 -126 0
-104 -137 0
-115 -126 0
-115 -137 0
-126 -137 0
-6 -17 0
-6 -28 0
-6 -39 0
-6 -50 0
-6 -61 0
-6 -72 0
-6 -83 0
-6 -94 0
-6 -105 0
-6 -116 0
-6 -127 0
-6 -138 0
-17 -28 0
-17 -39 0
-17 -50 0
-17 -61 0
-17 -72 0
-17 -83 0
-17 -94 0
-17 -105 0
-17 -116 0
-17 -127 0
-17 -138 0
-28 -39 0
-28 -50 0
-28 -61 0
-28 -72 0
-28 -83 0
-28 -94 0
-28 -105 0
-28 -116 0
-28 -127 0
-28 -138 0
-39 -50 0
-39 -61 0
-39 -72 0
-39 -83 0
-39 -94 0
-39 -105 0
-39 -116 0
-39 -127 0
-39 -138 0
-50 -61 0
-50 -72 0
-50 -83 0
-50 -94 0
-50 -105 0
-50 -116 0
-50 -127 0
-50 -138 0
-61 -72 0
-61 -83 0
-61 -94 0
-61 -105 0
-61 -116 0
-61 -127 0
-61 -138 0
-72 -83 0
-72 -94 0
-72 -105 0
-72 -116 0
-72 -127 0
-72 -138 0
-83 -94 0
-83 -105 0
-83 -116 0
-83 -127 0
-83 -138 0
-94 -105 0
-94 -116 0
-94 -127 0
-94 -138 0
-105 -116 0
-105 -127 0
-105 -138 0
-116 -127 0
-116 -138 0
-127 -138 0
-7 -18 0
-7 -29 0
-7 -40 0
-7 -51 0
-7 -62 0
-7 -73 0
-7 -84 0
-7 -95 0
-7 -106 0
-7 -117 0
-7 -128 0
-7 -139 0
-18 -29 0
-18 -40 0
-18 -51 0
-18 -62 0
-18 -73 0
-18 -84 0
-18 -95 0
-18 -106 0
-18 -117 0
-18 -128 0
-18 -139 0
-29 -40 0
-29 -51 0
-29 -62 0
-29 -73 0
-29 -84 0
-29 -95 0
-29 -106 0
-29 -117 0
-29 -128 0
-29 -139 0
-40 -51 0
-40 -62 0
-40 -73 0
-40 -84 0
-40 -95 0
-40 -106 0
-40 -117 0
-40 -128 0
-40 -139 0
-51 -62 0
-51 -73 0
-51 -84 0
-51 -95 0
-51 -106 0
-51 -117 0
-51 -128 0
-51 -139 0
-62 -73 0
-62 -84 0
-62 -95 0
-62 -106 0
-62 -117 0
-62 -128 0
-62 -139 0
-73 -84 0
-73 -95 0
-73 -106 0
-73 -117 0
-73 -128 0
-73 -139 0
-84 -95 0
-84 -106 0
-84 -117 0
-84 -128 0
-84 -139 0
-95 -106 0
-95 -117 0
-95 -128 0
-95 -139 0
-106 -117 0
-106 -128 0
-106 -139 0
-117 -128 0
-117 -139 0
-128 -139 0
-8 -19 0
-8 -30 0
-8 -41 0
-8 -52 0
-8 -63 0
-8 -74 0
-8 -85 0
-8 -96 0
-8 -107 0
-8 -118 0
-8 -129 0
-8 -140 0
-19 -30 0
-19 -41 0
-19 -52 0
-19 -63 0
-19 -74 0
-19 -85 0
-19 -96 0
-19 -107 0
-19 -118 0
-19 -129 0
-19 -140 0
-30 -41 0
-30 -52 0
-30 -63 0
-30 -74 0
-30 -85 0
-30 -96 0
-30 -107 0
-30 -118 0
-30 -129 0
-30 -140 0
-41 -52 0
-41 -63 0
-41 -74 0
-41 -85 0
-41 -96 0
-41 -107 0
-41 -118 0
-41 -129 0
-41 -140 0
-52 -63 0
-52 -74 0
-52 -85 0
-52 -96 0
-52 -107 0
-52 -118 0
-52 -129 0
-52 -140 0
-63 -74 0
-63 -85 0
-63 -96 0
-63 -107 0
-63 -118 0
-63 -129 0
-63 -140 0
-74 -85 0
-74 -96 0
-74 -107 0
-74 -118 0
-74 -129 0
-74 -140 0
-85 -96 0
-85 -107 0
-85 -118 0
-85 -129 0
-85 -140 0
-96 -107 0
-96 -118 0
-96 -129 0
-96 -140 0
-107 -118 0
-107 -129 0
-107 -140 0
-118 -129 0
-118 -140 0
-129 -140 0
-9 -20 0
-9 -31 0
-9 -42 0
-9 -53 0
-9 -64 0
-9 -75 0
-9 -86 0
-9 -97 0
-9 -108 0
-9 -119 0
-9 -130 0
-9 -141 0
-20 -31 0
-20 -42 0
-20 -53 0
-20 -64 0
-20 -75 0
-20 -86 0
-20 -97 0
-20 -108 0
-20 -119 0
-20 -130 0
-20 -141 0
-31 -42 0
-31 -53 0
-31 -64 0
-31 -75 0
-31 -86 0
-31 -97 0
-31 -108 0
-31 -119 0
-31 -130 0
-31 -141 0
-42 -53 0
-42 -64 0
-42 -75 0
-42 -86 0
-42 -97 0
-42 -108 0
-42 -119 0
-42 -130 0
-42 -141 0
-53 -64 0
-53 -75 0
-53 -86 0
-53 -97 0
-53 -108 0
-53 -119 0
-53 -130 0
-53 -141 0
-64 -75 0
-64 -86 0
-64 -97 0
-64 -108 0
-64 -119 0
-64 -130 0
-64 -141 0
-75 -86 0
-75 -97 0
-75 -108 0
-75 -119 0
-75 -130 0
-75 -141 0
-86 -97 0
-86 -108 0
-86 -119 0
-86 -130 0
-86 -141 0
-97 -108 0
-97 -119 0
-97 -130 0
-97 -141 0
-108 -119 0
-108 -130 0
-108 -141 0
-119 -130 0
-119 -141 0
-130 -141 0
-10 -21 0
-10 -32 0
-10 -43 0
-10 -54 0
-10 -65 0
-10 -76 0
-10 -87 0
-10 -98 0
-10 -109 0
-10 -120 0
-10 -131 0
-10 -142 0
-21 -32 0
-21 -43 0
-21 -54 0
-21 -65 0
-21 -76 0
-21 -87 0
-21 -98 0
-21 -109 0
-21 -120 0
-21 -131 0
-21 -142 0
-32 -43 0
-32 -54 0
-32 -65 0
-32 -76 0
-32 -87 0
-32 -98 0
-32 -109 0
-32 -120 0
-32 -131 0
-32 -142 0
-43 -54 0
-43 -65 0
-43 -76 0
-43 -87 0
-43 -98 0
-43 -109 0
-43 -120 0
-43 -131 0
-43 -142 0
-54 -65 0
-54 -76 0
-54 -87 0
-54 -98 0
-54 -109 0
-54 -120 0
-54 -131 0
-54 -142 0
-65 -76 0
-65 -87 0
-65 -98 0
-65 -109 0
-65 -120 0
-65 -131 0
-65 -142 0
-76 -87 0
-76 -98 0
-76 -109 0
-76 -120 0
-76 -131 0
-76 -142 0
-87 -98 0
-87 -109 0
-87 -120 0
-87 -131 0
-87 -142 0
-98 -109 0
-98 -120 0
-98 -131 0
-98 -142 0
-109 -120 0
-109 -131 0
-109 -142 0
-120 -131 0
-120 -142 0
-131 -142 0
-11 -22 0
-11 -33 0
-11 -44 0
-11 -55 0
-11 -66 0
-11 -77 0
-11 -88 0
-11 -99 0
-11 -110 0
-11 -121 0
-11 -132 0
-11 -143 0
-22 -33 0
-22 -44 0
-22 -55 0
-22 -66 0
-22 -77 0
-22 -88 0
-22 -99 0
-22 -110 0
-22 -121 0
-22 -132 0
-22 -143 0
-33 -44 0
-33 -55 0
-33 -66 0
-33 -77 0
-33 -88 0
-33 -99 0
-33 -110 0
-33 -121 0
-33 -132 0
-33 -143 0
-44 -55 0
-44 -66 0
-44 -77 0
-44 -88 0
-44 -99 0
-44 -110 0
-44 -121 0
-44 -132 0
-44 -143 0
-55 -66 0
-55 -77 0
-55 -88 0
-55 -99 0
-55 -110 0
-55 -121 0
-55 -132 0
-55 -143 0
-66 -77 0
-66 -88 0
-66 -99 0
-66 -110 0
-66 -121 0
-66 -132 0
-66 -143 0
-77 -88 0
-77 -99 0
-77 -110 0
-77 -121 0
-77 -132 0
-77 -143 0
-88 -99 0
-88 -110 0
-88 -121 0
-88 -132 0
-88 -143 0
-99 -110 0
-99 -121 0
-99 -132 0
-99 -143 0
-110 -121 0
-110 -132 0
-110 -143 0
-121 -132 0
-121 -143 0
-132 -143 0
144 145 146 147 148 149 150 151 152 153 154 0
155 156 157 158 159 160 161 162 163 164 165 0
166 167 168 169 170 171 172 173 174 175 176 0
177 178 179 180 181 182 183 184 185 186 187 0
188 189 190 191 192 193 194 195 196 197 198 0
199 200 201 202 203 204 205 206 207 208 209 0
210 211 212 213 214 215 216 217 218 219 220 0
221 222 223 224 225 226 227 228 229 230 231 0
232 233 234 235 236 237 238 239 240 241 242 0
243 244 245 246 247 248 249 250 251 252 253 0
254 255 256 257 258 259 260 261 262 263 264 0
265 266 267 268 269 270 271 272 273 274 275 0
276 277 278 279 280 281 282 283 284 285 286 0
-144 -155 0
-144 -166 0
-144 -177 0
-144 -188 0
-144 -199 0
-144 -210 0
-144 -221 0
-144 -232 0
-144 -243 0
-144 -254 0
-144 -265 0
-144 -276 0
-155 -166 0
-155 -177 0
-155 -188 0
-155 -199 0
-155 -210 0
-155 -221 0
-155 -232 0
-155 -243 0
-155 -254 0
-155 -265 0
-155 -276 0
-166 -177 0
-166 -188 0
-166 -199 0
-166 -210 0
-166 -221 0
-166 -232 0
-166 -243 0
-166 -254 0
-166 -265 0
-166 -276 0
-177 -188 0
-177 -199 0
-177 -210 0
-177 -221 0
-177 -232 0
-177 -243 0
-177 -254 0
-177 -265 0
-177 -276 0
-188 -199 0
-188 -210 0
-188 -221 0
-188 -232 0
-188 -243 0
-188 -254 0
-188 -265 0
-188 -276 0
-199 -210 0
-199 -221 0
-199 -232 0
-199 -243 0
-199 -254 0
-199 -265 0
-199 -276 0
-210 -221 0
-210 -232 0
-210 -243 0
-210 -254 0
-210 -265 0
-210 -276 0
-221 -232 0
-221 -243 0
-221 -254 0
-221 -265 0
-221 -276 0
-232 -243 0
-232 -254 0
-232 -265 0
-232 -276 0
-243 -254 0
-243 -265 0
-243 -276 0
-254 -265 0
-254 -276 0
-265 -276 0
-145 -156 0
-145 -167 0
-145 -178 0
-145 -189 0
-145 -200 0
-145 -211 0
-145 -222 0
-145 -233 0
-145 -244 0
-145 -255 0
-145 -266 0
-145 -277 0
-156 -167 0
-156 -178 0
-156 -189 0
-156 -200 0
-156 -211 0
-156 -222 0
-156 -233 0
-156 -244 0
-156 -255 0
-156 -266 0
-156 -277 0
-167 -178 0
-167 -189 0
-167 -200 0
-167 -211 0
-167 -222 0
-167 -233 0
-167 -244 0
-167 -255 0
-167 -266 0
-167 -277 0
-178 -189 0
-178 -200 0
-178 -211 0
-178 -222 0
-178 -233 0
-178 -244 0
-178 -255 0
-178 -266 0
-178 -277 0
-189 -200 0
-189 -211 0
-189 -222 0
-189 -233 0
-189 -244 0
-189 -255 0
-189 -266 0
-189 -277 0
-200 -211 0
-200 -222 0
-200 -233 0
-200 -244 0
-200 -255 0
-200 -266 0
-200 -277 0
-211 -222 0
-211 -233 0
-211 -244 0
-211 -255 0
-211 -266 0
-211 -277 0
-222 -233 0
-222 -244 0
-222 -255 0
-222 -266 0
-222 -277 0
-233 -244 0
-233 -255 0
-233 -266 0
-233 -277 0
-244 -255 0
-244 -266 0
-244 -277 0
-255 -266 0
-255 -277 0
-266 -277 0
-146 -157 0
-146 -168 0
-146 -179 0
-146 -190 0
-146 -201 0
-146 -212 0
-146 -223 0
-146 -234 0
-146 -245 0
-146 -256 0
-146 -267 0
-146 -278 0
-157 -168 0
-157 -179 0
-157 -190 0
-157 -201 0
-157 -212 0
-157 -223 0
-157 -234 0
-157 -245 0
-157 -256 0
-157 -267 0
-157 -278 0
-168 -179 0
-168 -190 0
-168 -201 0
-168 -212 0
-168 -223 0
-168 -234 0
-168 -245 0
-168 -256 0
-168 -267 0
-168 -278 0
-179 -190 0
-179 -201 0
-179 -212 0
-179 -223 0
-179 -234 0
-179 -245 0
-179 -256 0
-179 -267 0
-179 -278 0
-190 -201 0
-190 -212 0
-190 -223 0
-190 -234 0
-190 -245 0
-190 -256 0
-190 -267 0
-190 -278 0
-201 -212 0
-201 -223 0
-201 -234 0
-201 -245 0
-201 -256 0
-201 -267 0
-201 -278 0
-212 -223 0
-212 -234 0
-212 -245 0
-212 -256 0
-212 -267 0
-212 -278 0
-223 -234 0
-223 -245 0
-223 -256 0
-223 -267 0
-223 -278 0
-234 -245 0
-234 -256 0
-234 -267 0
-234 -278 0
-245 -256 0
-245 -267 0
-245 -278 0
-256 -267 0
-256 -278 0
-267 -278 0
-147 -158 0
-147 -169 0
-147 -180 0
-147 -191 0
-147 -202 0
-147 -213 0
-147 -224 0
-147 -235 0
-147 -246 0
-147 -257 0
-147 -268 0
-147 -279 0
-158 -169 0
-158 -180 0
-158 -191 0
-158 -202 0
-158 -213 0
-158 -224 0
-158 -235 0
-158 -246 0
-158 -257 0
-158 -268 0
-158 -279 0
-169 -180 0
-169 -191 0
-169 -202 0
-169 -213 0
-169 -224 0
-169 -235 0
-169 -246 0
-169 -257 0
-169 -268 0
-169 -279 0
-180 -191 0
-180 -202 0
-180 -213 0
-180 -224 0
-180 -235 0
-180 -246 0
-180 -257 0
-180 -268 0
-180 -279 0
-191 -202 0
-191 -213 0
-191 -224 0
-191 -235 0
-191 -246 0
-191 -257 0
-191 -268 0
-191 -279 0
-202 -213 0
-202 -224 0
-202 -235 0
-202 -246 0
-202 -257 0
-202 -268 0
-202 -279 0
-213 -224 0
-213 -235 0
-213 -246 0
-213 -257 0
-213 -268 0
-213 -279 0
-224 -235 0
-224 -246 0
-224 -257 0
-224 -268 0
-224 -279 0
-235 -246 0
-235 -257 0
-235 -268 0
-235 -279 0
-246 -257 0
-246 -268 0
-246 -279 0
-257 -268 0
-257 -279 0
-268 -279 0
-148 -159 0
-148 -170 0
-148 -181 0
-148 -192 0
-148 -203 0
-148 -214 0
-148 -225 0
-148 -236 0
-148 -247 0
-148 -258 0
-148 -269 0
-148 -280 0
-159 -170 0
-159 -181 0
-159 -192 0
-159 -203 0
-159 -214 0
-159 -225 0
-159 -236 0
-159 -247 0
-159 -258 0
-159 -269 0
-159 -280 0
-170 -181 0
-170 -192 0
-170 -203 0
-170 -214 0
-170 -225 0
-170 -236 0
-170 -247 0
-170 -258 0
-170 -269 0
-170 -280 0
-181 -192 0
-181 -203 0
-181 -214 0
-181 -225 0
-181 -236 0
-181 -247 0
-181 -258 0
-181 -269 0
-181 -280 0
-192 -203 0
-192 -214 0
-192 -225 0
-192 -236 0
-192 -247 0
-192 -258 0
-192 -269 0
-192 -280 0
-203 -214 0
-203 -225 0
-203 -236 0
-203 -247 0
-203 -258 0
-203 -269 0
-203 -280 0
-214 -225 0
-214 -236 0
-214 -247 0
-214 -258 0
-214 -269 0
-214 -280 0
-225 -236 0
-225 -247 0
-225 -258 0
-225 -269 0
-225 -280 0
-236 -247 0
-236 -258 0
-236 -269 0
-236 -280 0
-247 -258 0
-247 -269 0
-247 -280 0
-258 -269 0
-258 -280 0
-269 -280 0
-149 -160 0
-149 -171 0
-149 -182 0
-149 -193 0
-149 -204 0
-149 -215 0
-149 -226 0
-149 -237 0
-149 -248 0
-149 -259 0
-149 -270 0
-149 -281 0
-160 -171 0
-160 -182 0
-160 -193 0
-160 -204 0
-160 -215 0
-160 -226 0
-160 -237 0
-160 -248 0
-160 -259 0
-160 -270 0
-160 -281 0
-171 -182 0
-171 -193 0
-171 -204 0
-171 -215 0
-171 -226 0
-171 -237 0
-171 -248 0
-171 -259 0
-171 -270 0
-171 -281 0
-182 -193 0
-182 -204 0
-182 -215 0
-182 -226 0
-182 -237 0
-182 -248 0
-182 -259 0
-182 -270 0
-182 -281 0
-193 -204 0
-193 -215 0
-193 -226 0
-193 -237 0
-193 -248 0
-193 -259 0
-193 -270 0
-193 -281 0
-204 -215 0
-204 -226 0
-204 -237 0
-204 -248 0
-204 -259 0
-204 -270 0
-204 -281 0
-215 -226 0
-215 -237 0
-215 -248 0
-215 -259 0
-215 -270 0
-215 -281 0
-226 -237 0
-226 -248 0
-226 -259 0
-226 -270 0
-226 -281 0
-237 -248 0
-237 -259 0
-237 -270 0
-237 -281 0
-248 -259 0
-248 -270 0
-248 -281 0
-259 -270 0
-259 -281 0
-270 -281 0
-150 -161 0
-150 -172 0
-150 -183 0
-150 -194 0
-150 -205 0
-150 -216 0
-150 -227 0
-150 -238 0
-150 -249 0
-150 -260 0
-150 -271 0
-150 -282 0
-161 -172 0
-161 -183 0
-161 -194 0
-161 -205 0
-161 -216 0
-161 -227 0
-161 -238 0
-161 -249 0
-161 -260 0
-161 -271 0
-161 -282 0
-172 -183 0
-172 -194 0
-172 -205 0
-172 -216 0
-172 -227 0
-172 -238 0
-172 -249 0
-172 -260 0
-172 -271 0
-172 -282 0
-183 -194 0
-183 -205 0
-183 -216 0
-183 -227 0
-183 -238 0
-183 -249 0
-183 -260 0
-183 -271 0
-183 -282 0
-194 -205 0
-194 -216 0
-194 -227 0
-194 -238 0
-194 -249 0
-194 -260 0
-194 -271 0
-194 -282 0
-205 -216 0
-205 -227 0
-205 -238 0
-205 -249 0
-205 -260 0
-205 -271 0
-205 -282 0
-216 -227 0
-216 -238 0
-216 -249 0
-216 -260 0
-216 -271 0
-216 -282 0
-227 -238 0
-227 -249 0
-227 -260 0
-227 -271 0
-227 -282 0
-238 -249 0
-238 -260 0
-238 -271 0
-238 -282 0
-249 -260 0
-249 -271 0
-249 -282 0
-260 -271 0
-260 -282 0
-271 -282 0
-151 -162 0
-151 -173 0
-151 -184 0
-151 -195 0
-151 -206 0
-151 -217 0
-151 -228 0
-151 -239 0
-151 -250 0
-151 -261 0
-151 -272 0
-151 -283 0
-162 -173 0
-162 -184 0
-162 -195 0
-162 -206 0
-162 -217 0
-162 -228 0
-162 -239 0
-162 -250 0
-162 -261 0
-162 -272 0
-162 -283 0
-173 -184 0
-173 -195 0
-173 -206 0
-173 -217 0
-173 -228 0
-173 -239 0
-173 -250 0
-173 -261 0
-173 -272 0
-173 -283 0
-184 -195 0
-184 -206 0
-184 -217 0
-184 -228 0
-184 -239 0
-184 -250 0
-184 -261 0
-184 -272 0
-184 -283 0
-195 -206 0
-195 -217 0
-195 -228 0
-195 -239 0
-195 -250 0
-195 -261 0
-195 -272 0
-195 -283 0
-206 -217 0
-206 -228 0
-206 -239 0
-206 -250 0
-206 -261 0
-206 -272 0
-206 -283 0
-217 -228 0
-217 -239 0
-217 -250 0
-217 -261 0
-217 -272 0
-217 -283 0
-228 -239 0
-228 -250 0
-228 -261 0
-228 -272 0
-228 -283 0
-239 -250 0
-239 -261 0
-239 -272 0
-239 -283 0
-250 -261 0
-250 -272 0
-250 -283 0
-261 -272 0
-261 -283 0
-272 -283 0
-152 -163 0
-152 -174 0
-152 -185 0
-152 -196 0
-152 -207 0
-152 -218 0
-152 -229 0
-152 -240 0
-152 -251 0
-152 -262 0
-152 -273 0
-152 -284 0
-163 -174 0
-163 -185 0
-163 -196 0
-163 -207 0
-163 -218 0
-163 -229 0
-163 -240 0
-163 -251 0
-163 -262 0
-163 -273 0
-163 -284 0
-174 -185 0
-174 -196 0
-174 -207 0
-174 -218 0
-174 -229 0
-174 -240 0
-174 -251 0
-174 -262 0
-174 -273 0
-174 -284 0
-185 -196 0
-185 -207 0
-185 -218 0
-185 -229 0
-185 -240 0
-185 -251 0
-185 -262 0
-185 -273 0
-185 -284 0
-196 -207 0
-196 -218 0
-196 -229 0
-196 -240 0
-196 -251 0
-196 -262 0
-196 -273 0
-196 -284 0
-207 -218 0
-207 -229 0
-207 -240 0
-207 -251 0
-207 -262 0
-207 -273 0
-207 -284 0
-218 -229 0
-218 -240 0
-218 -251 0
-218 -262 0
-218 -273 0
-218 -284 0
-229 -240 0
-229 -251 0
-229 -262 0
-229 -273 0
-229 -284 0
-240 -251 0
-240 -262 0
-240 -273 0
-240 -284 0
-251 -262 0
-251 -273 0
-251 -284 0
-262 -273 0
-262 -284 0
-273 -284 0
-153 -164 0
-153 -175 0
-153 -186 0
-153 -197 0
-153 -208 0
-153 -219 0
-153 -230 0
-153 -241 0
-153 -252 0
-153 -263 0
-153 -274 0
-153 -285 0
-164 -175 0
-164 -186 0
-164 -197 0
-164 -208 0
-164 -219 0
-164 -230 0
-164 -241 0
-164 -252 0
-164 -263 0
-164 -274 0
-164 -285 0
-175 -186 0
-175 -197 0
-175 -208 0
-175 -219 0
-175 -230 0
-175 -241 0
-175 -252 0
-175 -263 0
-175 -274 0
-175 -285 0
-186 -197 0
-186 -208 0
-186 -219 0
-186 -230 0
-186 -241 0
-186 -252 0
-186 -263 0
-186 -274 0
-186 -285 0
-197 -208 0
-197 -219 0
-197 -230 0
-197 -241 0
-197 -252 0
-197 -263 0
-197 -274 0
-197 -285 0
-208 -219 0
-208 -230 0
-208 -241 0
-208 -252 0
-208 -263 0
-208 -274 0
-208 -285 0
-219 -230 0
-219 -241 0
-219 -252 0
-219 -263 0
-219 -274 0
-219 -285 0
-230 -241 0
-230 -252 0
-230 -263 0
-230 -274 0
-230 -285 0
-241 -252 0
-241 -263 0
-241 -274 0
-241 -285 0
-252 -263 0
-252 -274 0
-252 -285 0
-263 -274 0
-263 -285 0
-274 -285 0
-154 -165 0
-154 -176 0
-154 -187 0
-154 -198 0
-154 -209 0
-154 -220 0
-154 -231 0
-154 -242 0
-154 -253 0
-154 -264 0
-154 -275 0
-154 -286 0
-165 -176 0
-165 -187 0
-165 -198 0
-165 -209 0
-165 -220 0
-165 -231 0
-165 -242 0
-165 -253 0
-165 -264 0
-165 -275 0
-165 -286 0
-176 -187 0
-176 -198 0
-176 -209 0
-176 -220 0
-176 -231 0
-176 -242 0
-176 -253 0
-176 -264 0
-176 -275 0
-176 -286 0
-187 -198 0
-187 -209 0
-187 -220 0
-187 -231 0
-187 -242 0
-187 -253 0
-187 -264 0
-187 -275 0
-187 -286 0
-198 -209 0
-198 -220 0
-198 -231 0
-198 -242 0
-198 -253 0
-198 -264 0
-198 -275 0
-198 -286 0
-209 -220 0
-209 -231 0
-209 -242 0
-209 -253 0
-209 -264 0
-209 -275 0
-209 -286 0
-220 -231 0
-220 -242 0
-220 -253 0
-220 -264 0
-220 -275 0
-220 -286 0
-231 -242 0
-231 -253 0
-231 -264 0
-231 -275 0
-231 -286 0
-242 -253 0
-242 -264 0
-242 -275 0
-242 -286 0
-253 -264 0
-253 -275 0
-253 -286 0
-264 -275 0
-264 -286 0
-275 -286 0
